param set_len = 20;
param target = 1579763074;
param values := [0] 112239043 [1] 437177935 [2] 105956026 [3] 325961961 [4] 514598245 [5] 48311337 [6] 357031483 [7] 110646580 [8] 343528890 [9] 102679414 [10] 456872082 [11] 320978443 [12] 225049827 [13] 390794792 [14] 60763658 [15] 510053703 [16] 57236572 [17] 59039184 [18] 91759913 [19] 35055570 ;
